
Gurobi 6.5.2 (win64) logging started 07/23/16 02:46:39


Gurobi 6.5.2 (win64) logging started 07/23/16 02:46:39

Optimize a model with 15252 rows, 1340 columns and 33772 nonzeros
Coefficient statistics:
  Matrix range    [4e-06, 1e+03]
  Objective range [1e+00, 1e+00]
  Bounds range    [1e+00, 1e+00]
  RHS range       [1e+00, 1e+03]
Found heuristic solution: objective 350.584
Presolve removed 15223 rows and 1312 columns
Presolve time: 0.01s
Presolved: 29 rows, 28 columns, 87 nonzeros
Found heuristic solution: objective 235.7008850
Variable types: 28 continuous, 0 integer (0 binary)

Root relaxation: objective 1.916365e+02, 21 iterations, 0.00 seconds

    Nodes    |    Current Node    |     Objective Bounds      |     Work
 Expl Unexpl |  Obj  Depth IntInf | Incumbent    BestBd   Gap | It/Node Time

*    0     0               0     191.6364500  191.63645  0.00%     -    0s

Explored 0 nodes (21 simplex iterations) in 0.02 seconds
Thread count was 8 (of 8 available processors)

Optimal solution found (tolerance 1.00e-04)
Best objective 1.916364500275e+02, best bound 1.916364500275e+02, gap 0.0%

Wrote requested result file 'H2\instance12\\Results12EC_Sol3.lp'

